unknown
(:binary-propagations  2223
 :decisions            994
 :del-clause           911
 :final-checks         2
 :max-generation       1
 :max-memory           32.82
 :memory               23.19
 :mk-bool-var          5342
 :mk-clause            1547
 :mk-clause-binary     3431
 :num-allocs           346432020
 :num-checks           1
 :propagations         2437
 :quant-instantiations 911
 :restarts             1
 :rlimit-count         948129
 :time                 0.31)
